(declare-fun var0 () String)
(assert (RegexIn var0 (RegexConcat (RegexUnion (RegexUnion (Str2Reg "K") (Str2Reg "LLL")) (RegexPlus (Str2Reg "MMM"))) (RegexConcat (RegexStar (RegexStar (Str2Reg "JJJ"))) (RegexConcat (RegexUnion (RegexUnion (Str2Reg "G") (Str2Reg "HHH")) (RegexPlus (Str2Reg "II"))) (RegexConcat (RegexStar (RegexUnion (Str2Reg "E") (Str2Reg "FFF"))) (RegexConcat (RegexStar (RegexPlus (Str2Reg "DD"))) (RegexConcat (RegexPlus (RegexStar (Str2Reg "CCC"))) (RegexConcat (RegexUnion (RegexUnion (Str2Reg "y") (Str2Reg "zz")) (RegexUnion (Str2Reg "A") (Str2Reg "BB"))) (RegexConcat (RegexPlus (RegexUnion (Str2Reg "w") (Str2Reg "x"))) (RegexConcat (RegexPlus (RegexUnion (Str2Reg "uuu") (Str2Reg "vvv"))) (RegexConcat (RegexStar (RegexPlus (Str2Reg "tt"))) (RegexConcat (RegexPlus (RegexUnion (Str2Reg "r") (Str2Reg "ss"))) (RegexConcat (RegexUnion (RegexUnion (Str2Reg "ooo") (Str2Reg "pp")) (RegexPlus (Str2Reg "qqq"))) (RegexConcat (RegexStar (RegexStar (Str2Reg "nnn"))) (RegexConcat (RegexPlus (RegexUnion (Str2Reg "l") (Str2Reg "m"))) (RegexConcat (RegexPlus (RegexUnion (Str2Reg "j") (Str2Reg "kkk"))) (RegexConcat (RegexUnion (RegexPlus (Str2Reg "hh")) (RegexStar (Str2Reg "i"))) (RegexConcat (RegexUnion (RegexUnion (Str2Reg "eee") (Str2Reg "fff")) (RegexStar (Str2Reg "ggg"))) (RegexConcat (RegexPlus (RegexUnion (Str2Reg "c") (Str2Reg "d"))) (RegexConcat (RegexUnion (RegexPlus (Str2Reg "999")) (RegexUnion (Str2Reg "aa") (Str2Reg "bb"))) (RegexConcat (RegexUnion (RegexPlus (Str2Reg "7")) (RegexStar (Str2Reg "8"))) (RegexConcat (RegexStar (RegexUnion (Str2Reg "5") (Str2Reg "666"))) (RegexConcat (RegexStar (RegexStar (Str2Reg "4"))) (RegexConcat (RegexUnion (RegexStar (Str2Reg "2")) (RegexPlus (Str2Reg "33"))) (RegexConcat (RegexPlus (RegexUnion (Str2Reg "000") (Str2Reg "111"))) (RegexConcat (RegexPlus (RegexStar (Str2Reg "~"))) (RegexConcat (RegexPlus (RegexUnion (Str2Reg "||") (Str2Reg "}}}"))) (RegexConcat (RegexStar (RegexStar (Str2Reg "{"))) (RegexConcat (RegexUnion (RegexUnion (Str2Reg "]]") (Str2Reg "^^")) (RegexUnion (Str2Reg "_") (Str2Reg "``"))) (RegexConcat (RegexPlus (RegexPlus (Str2Reg "\\\\"))) (RegexConcat (RegexStar (RegexUnion (Str2Reg "@@@") (Str2Reg "[[["))) (RegexConcat (RegexStar (RegexUnion (Str2Reg ">") (Str2Reg "???"))) (RegexConcat (RegexPlus (RegexPlus (Str2Reg "==="))) (RegexConcat (RegexPlus (RegexStar (Str2Reg "<<"))) (RegexConcat (RegexPlus (RegexPlus (Str2Reg ";"))) (RegexConcat (RegexPlus (RegexPlus (Str2Reg "::"))) (RegexConcat (RegexUnion (RegexStar (Str2Reg "...")) (RegexStar (Str2Reg "///"))) (RegexConcat (RegexPlus (RegexUnion (Str2Reg ",,,") (Str2Reg "-"))) (RegexConcat (RegexUnion (RegexUnion (Str2Reg ")))") (Str2Reg "**")) (RegexStar (Str2Reg "+++"))) (RegexConcat (RegexPlus (RegexUnion (Str2Reg "'''") (Str2Reg "(("))) (RegexConcat (RegexUnion (RegexPlus (Str2Reg "$$$")) (RegexUnion (Str2Reg "%%") (Str2Reg "&&"))) (RegexConcat (RegexStar (RegexStar (Str2Reg "###"))) (RegexConcat (RegexUnion (RegexUnion (Str2Reg "ZZZ") (Str2Reg "!")) (RegexPlus (Str2Reg "\"\"\""))) (RegexConcat (RegexPlus (RegexPlus (Str2Reg "YY"))) (RegexConcat (RegexStar (RegexUnion (Str2Reg "WWW") (Str2Reg "XXX"))) (RegexConcat (RegexStar (RegexUnion (Str2Reg "UU") (Str2Reg "V"))) (RegexConcat (RegexStar (RegexStar (Str2Reg "TT"))) (RegexConcat (RegexStar (RegexUnion (Str2Reg "R") (Str2Reg "SS"))) (RegexConcat (RegexStar (RegexUnion (Str2Reg "PP") (Str2Reg "QQ"))) (RegexConcat (RegexPlus (RegexUnion (Str2Reg "NN") (Str2Reg "OO"))) (RegexConcat (RegexStar (RegexUnion (Str2Reg "L") (Str2Reg "MMM"))) (RegexConcat (RegexPlus (RegexPlus (Str2Reg "KK"))) (RegexConcat (RegexStar (RegexUnion (Str2Reg "III") (Str2Reg "J"))) (RegexConcat (RegexUnion (RegexPlus (Str2Reg "FF")) (RegexUnion (Str2Reg "GG") (Str2Reg "H"))) (RegexConcat (RegexPlus (RegexPlus (Str2Reg "E"))) (RegexConcat (RegexStar (RegexUnion (Str2Reg "C") (Str2Reg "D"))) (RegexConcat (RegexStar (RegexUnion (Str2Reg "A") (Str2Reg "BBB"))) (RegexConcat (RegexPlus (RegexUnion (Str2Reg "yyy") (Str2Reg "zz"))) (RegexConcat (RegexUnion (RegexStar (Str2Reg "w")) (RegexStar (Str2Reg "xxx"))) (RegexConcat (RegexPlus (RegexPlus (Str2Reg "vv"))) (RegexConcat (RegexPlus (RegexPlus (Str2Reg "u"))) (RegexConcat (RegexStar (RegexStar (Str2Reg "ttt"))) (RegexConcat (RegexStar (RegexPlus (Str2Reg "s"))) (RegexConcat (RegexStar (RegexStar (Str2Reg "r"))) (RegexConcat (RegexStar (RegexUnion (Str2Reg "ppp") (Str2Reg "q"))) (RegexConcat (RegexUnion (RegexStar (Str2Reg "nnn")) (RegexPlus (Str2Reg "o"))) (RegexConcat (RegexPlus (RegexUnion (Str2Reg "ll") (Str2Reg "mm"))) (RegexConcat (RegexPlus (RegexStar (Str2Reg "kk"))) (RegexConcat (RegexUnion (RegexStar (Str2Reg "h")) (RegexUnion (Str2Reg "i") (Str2Reg "j"))) (RegexConcat (RegexUnion (RegexStar (Str2Reg "fff")) (RegexStar (Str2Reg "g"))) (RegexConcat (RegexUnion (RegexPlus (Str2Reg "d")) (RegexStar (Str2Reg "e"))) (RegexConcat (RegexUnion (RegexPlus (Str2Reg "bbb")) (RegexPlus (Str2Reg "c"))) (RegexConcat (RegexUnion (RegexStar (Str2Reg "88")) (RegexUnion (Str2Reg "999") (Str2Reg "a"))) (RegexConcat (RegexStar (RegexPlus (Str2Reg "777"))) (RegexConcat (RegexPlus (RegexStar (Str2Reg "66"))) (RegexConcat (RegexPlus (RegexStar (Str2Reg "555"))) (RegexConcat (RegexStar (RegexUnion (Str2Reg "3") (Str2Reg "444"))) (RegexConcat (RegexPlus (RegexStar (Str2Reg "222"))) (RegexStar (RegexUnion (Str2Reg "0") (Str2Reg "1"))))))))))))))))))))))))))))))))))))))))))))))))))))))))))))))))))))))))))))))))))
(check-sat)